(set-logic HORN)
; KVARS

(declare-fun k_95 (Int Int Int Int Int Int Int) Bool)

(declare-fun k_93 (Int Int Int Int Int Int) Bool)

(declare-fun k_91 (Int Int Int Int Int Int) Bool)

(declare-fun k_89 (Int Int Int Int Int Int) Bool)

(declare-fun k_86 (Int Int Int Int Int Int Int) Bool)

(declare-fun k_84 (Int Int Int Int Int Int Int) Bool)

(declare-fun k_82 (Int Int Int Int Int Int Int) Bool)

(declare-fun k_79 (Int Int Int Int Int) Bool)

(declare-fun k_73 (Int Int Int Int Int Int) Bool)

(declare-fun k_70 (Int Int Int Int Int) Bool)

(declare-fun k_65 (Int Int Int Int Int Int Int Int) Bool)

(declare-fun k_59 (Int Int Int Int Int) Bool)

(declare-fun k_56 (Int Int Int Int) Bool)

(declare-fun k_53 (Int Int Int Int Int) Bool)

(declare-fun k_51 (Int Int Int Int Int) Bool)

(declare-fun k_49 (Int Int Int Int Int) Bool)

(declare-fun k_130 (Int Int Int Int Int Int Int) Bool)

(declare-fun k_128 (Int Int Int Int Int Int Int) Bool)

(declare-fun k_125 (Int Int Int Int Int Int Int Int) Bool)

(declare-fun k_123 (Int Int Int Int Int Int Int Int) Bool)

(declare-fun k_121 (Int Int Int Int Int Int Int Int) Bool)

(declare-fun k_117 (Int Int Int Int Int Int) Bool)

(declare-fun k_113 (Int Int Int Int) Bool)

(declare-fun k_110 (Int Int Int Int Int Int Int) Bool)

(declare-fun k_107 (Int Int Int Int Int Int Int Int) Bool)

(declare-fun k_105 (Int Int Int Int Int Int Int Int) Bool)

(declare-fun k_103 (Int Int Int Int Int Int Int Int) Bool)

(declare-fun k_101 (Int Int Int Int Int Int Int) Bool)

; CONSTRAINTS

; cid = 26
(assert (forall ((EQ_6U Int) 
(GT_6W Int) (LT_6S Int) (P_rkk (Array Int (Array Int Int))) 
(Prop (Array Int Bool)) (VV_F26 Int) (cmp (Array Int Int)) (ds_dzI Int) 
(lq_anf__dzK Int) (lq_anf__dzL Int) (x_ayL Int) 
(y_ayM Int)) 
 (=> (and (not (select Prop VV_F26)) (and (k_56 EQ_6U GT_6W LT_6S ds_dzI) (and (k_56 EQ_6U GT_6W LT_6S lq_anf__dzK) (and (k_49 EQ_6U GT_6W LT_6S x_ayL lq_anf__dzK) (and (k_51 EQ_6U GT_6W LT_6S y_ayM lq_anf__dzK) (and (k_53 EQ_6U GT_6W LT_6S y_ayM x_ayL) (and (= (select cmp EQ_6U) EQ_6U) (and (= (select cmp GT_6W) GT_6W) (and (= (select cmp LT_6S) LT_6S) (and (= lq_anf__dzK ds_dzI) (and (= lq_anf__dzK (select (select P_rkk x_ayL) y_ayM)) (and (= (select Prop lq_anf__dzL) (< x_ayL y_ayM)) (and (= (select Prop VV_F26) (< x_ayL y_ayM)) (and (= VV_F26 lq_anf__dzL) true)))))))))))))) false))
)


; cid = 24
(assert (forall ((EQ_6U Int) (GT_6W Int) (LT_6S Int) 
(VV_F24 Int) (a_azc Int) (cmp (Array Int Int)) (lq_anf__dzM Int) 
(lq_anf__dzN Int) 
(x_ayI Int)) 
 (=> (and (k_70 EQ_6U GT_6W LT_6S x_ayI a_azc) (and (= (select cmp EQ_6U) EQ_6U) (and (= (select cmp GT_6W) GT_6W) (and (= (select cmp LT_6S) LT_6S) (and (= lq_anf__dzM 1) (and (= lq_anf__dzN lq_anf__dzM) (and (= VV_F24 (+ x_ayI lq_anf__dzN)) true))))))) (k_73 EQ_6U GT_6W LT_6S VV_F24 a_azc x_ayI)))
)


; cid = 23
(assert (forall ((EQ_6U Int) (GT_6W Int) (LT_6S Int) 
(VV_F23 Int) (b_azp Int) (cmp (Array Int Int)) 
(x_ayJ Int)) 
 (=> (and (k_79 EQ_6U GT_6W LT_6S x_ayJ b_azp) (and (= (select cmp EQ_6U) EQ_6U) (and (= (select cmp GT_6W) GT_6W) (and (= (select cmp LT_6S) LT_6S) (and (k_79 EQ_6U GT_6W LT_6S VV_F23 b_azp) (and (= VV_F23 x_ayJ) true)))))) (k_91 EQ_6U GT_6W LT_6S VV_F23 b_azp x_ayJ)))
)


; cid = 22
(assert (forall ((EQ_6U Int) (GT_6W Int) (LT_6S Int) 
(VV_F22 Int) (a_azc Int) (b_azp Int) (cmp (Array Int Int)) 
(x_ayJ Int)) 
 (=> (and (k_79 EQ_6U GT_6W LT_6S x_ayJ b_azp) (and (= (select cmp EQ_6U) EQ_6U) (and (= (select cmp GT_6W) GT_6W) (and (= (select cmp LT_6S) LT_6S) (and (k_79 EQ_6U GT_6W LT_6S VV_F22 b_azp) (and (= VV_F22 x_ayJ) true)))))) (k_70 EQ_6U GT_6W LT_6S VV_F22 a_azc)))
)


; cid = 21
(assert (forall ((EQ_6U Int) (GT_6W Int) (LT_6S Int) 
(VV_F21 Int) (a_azc Int) (b_azp Int) (cmp (Array Int Int)) (lq_anf__dzP Int) 
(lq_tmp_x108 Int) (x Int) 
(x_ayJ Int)) 
 (=> (and (k_73 EQ_6U GT_6W LT_6S lq_anf__dzP a_azc x_ayJ) (and (k_101 EQ_6U GT_6W LT_6S x b_azp lq_anf__dzP x_ayJ) (and (k_79 EQ_6U GT_6W LT_6S x_ayJ b_azp) (and (= (select cmp EQ_6U) EQ_6U) (and (= (select cmp GT_6W) GT_6W) (and (= (select cmp LT_6S) LT_6S) (and (k_95 EQ_6U GT_6W LT_6S VV_F21 b_azp lq_tmp_x108 x_ayJ) true))))))) (k_107 EQ_6U GT_6W LT_6S VV_F21 b_azp lq_anf__dzP lq_tmp_x108 x_ayJ)))
)


; cid = 20
(assert (forall ((EQ_6U Int) (GT_6W Int) (LT_6S Int) 
(VV_165 Int) (VV_F20 Int) (a_azc Int) (b_azp Int) (cmp (Array Int Int)) 
(lq_anf__dzP Int) (x Int) 
(x_ayJ Int)) 
 (=> (and (k_73 EQ_6U GT_6W LT_6S lq_anf__dzP a_azc x_ayJ) (and (k_101 EQ_6U GT_6W LT_6S x b_azp lq_anf__dzP x_ayJ) (and (k_79 EQ_6U GT_6W LT_6S x_ayJ b_azp) (and (= (select cmp EQ_6U) EQ_6U) (and (= (select cmp GT_6W) GT_6W) (and (= (select cmp LT_6S) LT_6S) (and (k_93 EQ_6U GT_6W LT_6S VV_F20 b_azp x_ayJ) true))))))) (k_105 EQ_6U GT_6W LT_6S VV_F20 VV_165 b_azp lq_anf__dzP x_ayJ)))
)


; cid = 19
(assert (forall ((EQ_6U Int) (GT_6W Int) (LT_6S Int) 
(VV_165 Int) (VV_F19 Int) (a_azc Int) (b_azp Int) (cmp (Array Int Int)) 
(lq_anf__dzP Int) (x Int) 
(x_ayJ Int)) 
 (=> (and (k_73 EQ_6U GT_6W LT_6S lq_anf__dzP a_azc x_ayJ) (and (k_101 EQ_6U GT_6W LT_6S x b_azp lq_anf__dzP x_ayJ) (and (k_79 EQ_6U GT_6W LT_6S x_ayJ b_azp) (and (= (select cmp EQ_6U) EQ_6U) (and (= (select cmp GT_6W) GT_6W) (and (= (select cmp LT_6S) LT_6S) (and (k_91 EQ_6U GT_6W LT_6S VV_F19 b_azp x_ayJ) true))))))) (k_103 EQ_6U GT_6W LT_6S VV_F19 VV_165 b_azp lq_anf__dzP x_ayJ)))
)


; cid = 18
(assert (forall ((EQ_6U Int) (GT_6W Int) (LT_6S Int) 
(VV_F18 Int) (a_azc Int) (b_azp Int) (cmp (Array Int Int)) (lq_anf__dzP Int) 
(x Int) 
(x_ayJ Int)) 
 (=> (and (k_73 EQ_6U GT_6W LT_6S lq_anf__dzP a_azc x_ayJ) (and (k_101 EQ_6U GT_6W LT_6S x b_azp lq_anf__dzP x_ayJ) (and (k_79 EQ_6U GT_6W LT_6S x_ayJ b_azp) (and (= (select cmp EQ_6U) EQ_6U) (and (= (select cmp GT_6W) GT_6W) (and (= (select cmp LT_6S) LT_6S) true)))))) (k_110 EQ_6U GT_6W LT_6S VV_F18 b_azp lq_anf__dzP x_ayJ)))
)


; cid = 17
(assert (forall ((EQ_6U Int) (GT_6W Int) (LT_6S Int) 
(VV_F17 Int) (a_azc Int) (b_azp Int) (cmp (Array Int Int)) (lq_anf__dzP Int) 
(x_ayJ Int)) 
 (=> (and (k_73 EQ_6U GT_6W LT_6S lq_anf__dzP a_azc x_ayJ) (and (k_79 EQ_6U GT_6W LT_6S x_ayJ b_azp) (and (= (select cmp EQ_6U) EQ_6U) (and (= (select cmp GT_6W) GT_6W) (and (= (select cmp LT_6S) LT_6S) (and (k_101 EQ_6U GT_6W LT_6S VV_F17 b_azp lq_anf__dzP x_ayJ) true)))))) (k_95 EQ_6U GT_6W LT_6S VV_F17 b_azp x_ayJ x_ayJ)))
)


; cid = 17
(assert (forall ((EQ_6U Int) (GT_6W Int) (LT_6S Int) 
(VV_F17 Int) (a_azc Int) (b_azp Int) (cmp (Array Int Int)) (lq_anf__dzP Int) 
(x_ayJ Int)) 
 (=> (and (k_73 EQ_6U GT_6W LT_6S lq_anf__dzP a_azc x_ayJ) (and (k_79 EQ_6U GT_6W LT_6S x_ayJ b_azp) (and (= (select cmp EQ_6U) EQ_6U) (and (= (select cmp GT_6W) GT_6W) (and (= (select cmp LT_6S) LT_6S) (and (k_101 EQ_6U GT_6W LT_6S VV_F17 b_azp lq_anf__dzP x_ayJ) true)))))) (k_93 EQ_6U GT_6W LT_6S VV_F17 b_azp x_ayJ)))
)


; cid = 16
(assert (forall ((EQ_6U Int) (GT_6W Int) (LT_6S Int) 
(VV_F16 Int) (a_azc Int) (b_azp Int) (cmp (Array Int Int)) (lq_anf__dzP Int) 
(x_ayJ Int)) 
 (=> (and (k_73 EQ_6U GT_6W LT_6S lq_anf__dzP a_azc x_ayJ) (and (k_79 EQ_6U GT_6W LT_6S x_ayJ b_azp) (and (= (select cmp EQ_6U) EQ_6U) (and (= (select cmp GT_6W) GT_6W) (and (= (select cmp LT_6S) LT_6S) (and (k_73 EQ_6U GT_6W LT_6S VV_F16 a_azc x_ayJ) (and (= VV_F16 lq_anf__dzP) true))))))) (k_101 EQ_6U GT_6W LT_6S VV_F16 b_azp lq_anf__dzP x_ayJ)))
)


; cid = 15
(assert (forall ((EQ_6U Int) (GT_6W Int) (LT_6S Int) 
(VV_F15 Int) (a_azc Int) (b_azp Int) (cmp (Array Int Int)) (lq_anf__dzP Int) 
(lq_tmp_x87 Int) 
(x_ayJ Int)) 
 (=> (and (k_73 EQ_6U GT_6W LT_6S lq_anf__dzP a_azc x_ayJ) (and (k_79 EQ_6U GT_6W LT_6S x_ayJ b_azp) (and (= (select cmp EQ_6U) EQ_6U) (and (= (select cmp GT_6W) GT_6W) (and (= (select cmp LT_6S) LT_6S) (and (k_107 EQ_6U GT_6W LT_6S VV_F15 b_azp lq_anf__dzP lq_tmp_x87 x_ayJ) true)))))) (k_86 EQ_6U GT_6W LT_6S VV_F15 b_azp lq_tmp_x87 x_ayJ)))
)


; cid = 14
(assert (forall ((EQ_6U Int) (GT_6W Int) (LT_6S Int) 
(VV_161 Int) (VV_F14 Int) (a_azc Int) (b_azp Int) (cmp (Array Int Int)) 
(lq_anf__dzP Int) 
(x_ayJ Int)) 
 (=> (and (k_110 EQ_6U GT_6W LT_6S VV_161 b_azp lq_anf__dzP x_ayJ) (and (k_73 EQ_6U GT_6W LT_6S lq_anf__dzP a_azc x_ayJ) (and (k_79 EQ_6U GT_6W LT_6S x_ayJ b_azp) (and (= (select cmp EQ_6U) EQ_6U) (and (= (select cmp GT_6W) GT_6W) (and (= (select cmp LT_6S) LT_6S) (and (k_105 EQ_6U GT_6W LT_6S VV_F14 VV_161 b_azp lq_anf__dzP x_ayJ) true))))))) (k_84 EQ_6U GT_6W LT_6S VV_F14 VV_161 b_azp x_ayJ)))
)


; cid = 13
(assert (forall ((EQ_6U Int) (GT_6W Int) (LT_6S Int) 
(VV_161 Int) (VV_F13 Int) (a_azc Int) (b_azp Int) (cmp (Array Int Int)) 
(lq_anf__dzP Int) 
(x_ayJ Int)) 
 (=> (and (k_110 EQ_6U GT_6W LT_6S VV_161 b_azp lq_anf__dzP x_ayJ) (and (k_73 EQ_6U GT_6W LT_6S lq_anf__dzP a_azc x_ayJ) (and (k_79 EQ_6U GT_6W LT_6S x_ayJ b_azp) (and (= (select cmp EQ_6U) EQ_6U) (and (= (select cmp GT_6W) GT_6W) (and (= (select cmp LT_6S) LT_6S) (and (k_103 EQ_6U GT_6W LT_6S VV_F13 VV_161 b_azp lq_anf__dzP x_ayJ) true))))))) (k_82 EQ_6U GT_6W LT_6S VV_F13 VV_161 b_azp x_ayJ)))
)


; cid = 12
(assert (forall ((EQ_6U Int) (GT_6W Int) (LT_6S Int) 
(VV_F12 Int) (a_azc Int) (b_azp Int) (cmp (Array Int Int)) (lq_anf__dzP Int) 
(x_ayJ Int)) 
 (=> (and (k_73 EQ_6U GT_6W LT_6S lq_anf__dzP a_azc x_ayJ) (and (k_79 EQ_6U GT_6W LT_6S x_ayJ b_azp) (and (= (select cmp EQ_6U) EQ_6U) (and (= (select cmp GT_6W) GT_6W) (and (= (select cmp LT_6S) LT_6S) (and (k_110 EQ_6U GT_6W LT_6S VV_F12 b_azp lq_anf__dzP x_ayJ) true)))))) (k_89 EQ_6U GT_6W LT_6S VV_F12 b_azp x_ayJ)))
)


; cid = 11
(assert (forall ((EQ_6U Int) (GT_6W Int) (LT_6S Int) 
(VV_F11 Int) (b_azp Int) (cmp (Array Int Int)) (lq_anf__dzQ Int) 
(n_ayK Int)) 
 (=> (and (= (select cmp EQ_6U) EQ_6U) (and (= (select cmp GT_6W) GT_6W) (and (= (select cmp LT_6S) LT_6S) (and (= lq_anf__dzQ 100) (and (= VV_F11 n_ayK) true))))) (k_79 EQ_6U GT_6W LT_6S VV_F11 b_azp)))
)


; cid = 9
(assert (forall ((EQ_6U Int) (GT_6W Int) (LT_6S Int) (VV_F9 Int) 
(b_azp Int) (cmp (Array Int Int)) (lq_anf__dzQ Int) (lq_anf__dzS Int) 
(lq_tmp_x54 Int) 
(n_ayK Int)) 
 (=> (and (k_89 EQ_6U GT_6W LT_6S lq_anf__dzS b_azp n_ayK) (and (= (select cmp EQ_6U) EQ_6U) (and (= (select cmp GT_6W) GT_6W) (and (= (select cmp LT_6S) LT_6S) (and (= lq_anf__dzQ 100) (and (k_125 EQ_6U GT_6W LT_6S VV_F9 lq_anf__dzQ lq_anf__dzS lq_tmp_x54 n_ayK) true)))))) (k_53 EQ_6U GT_6W LT_6S VV_F9 lq_tmp_x54)))
)


; cid = 8
(assert (forall ((EQ_6U Int) (GT_6W Int) (LT_6S Int) (VV_143 Int) 
(VV_F8 Int) (b_azp Int) (cmp (Array Int Int)) (lq_anf__dzQ Int) 
(lq_anf__dzS Int) 
(n_ayK Int)) 
 (=> (and (k_128 EQ_6U GT_6W LT_6S VV_143 lq_anf__dzQ lq_anf__dzS n_ayK) (and (k_89 EQ_6U GT_6W LT_6S lq_anf__dzS b_azp n_ayK) (and (= (select cmp EQ_6U) EQ_6U) (and (= (select cmp GT_6W) GT_6W) (and (= (select cmp LT_6S) LT_6S) (and (= lq_anf__dzQ 100) (and (k_123 EQ_6U GT_6W LT_6S VV_F8 VV_143 lq_anf__dzQ lq_anf__dzS n_ayK) true))))))) (k_51 EQ_6U GT_6W LT_6S VV_F8 VV_143)))
)


; cid = 8
(assert (forall ((EQ_6U Int) (GT_6W Int) (LT_6S Int) (VV_143 Int) 
(VV_F8 Int) (b_azp Int) (cmp (Array Int Int)) (lq_anf__dzQ Int) 
(lq_anf__dzS Int) 
(n_ayK Int)) 
 (=> (and (k_128 EQ_6U GT_6W LT_6S VV_143 lq_anf__dzQ lq_anf__dzS n_ayK) (and (k_89 EQ_6U GT_6W LT_6S lq_anf__dzS b_azp n_ayK) (and (= (select cmp EQ_6U) EQ_6U) (and (= (select cmp GT_6W) GT_6W) (and (= (select cmp LT_6S) LT_6S) (and (= lq_anf__dzQ 100) (and (k_123 EQ_6U GT_6W LT_6S VV_F8 VV_143 lq_anf__dzQ lq_anf__dzS n_ayK) true))))))) (k_117 EQ_6U GT_6W LT_6S VV_F8 lq_anf__dzQ n_ayK)))
)


; cid = 7
(assert (forall ((EQ_6U Int) (GT_6W Int) (LT_6S Int) (VV_143 Int) 
(VV_F7 Int) (b_azp Int) (cmp (Array Int Int)) (lq_anf__dzQ Int) 
(lq_anf__dzS Int) 
(n_ayK Int)) 
 (=> (and (k_128 EQ_6U GT_6W LT_6S VV_143 lq_anf__dzQ lq_anf__dzS n_ayK) (and (k_89 EQ_6U GT_6W LT_6S lq_anf__dzS b_azp n_ayK) (and (= (select cmp EQ_6U) EQ_6U) (and (= (select cmp GT_6W) GT_6W) (and (= (select cmp LT_6S) LT_6S) (and (= lq_anf__dzQ 100) (and (k_121 EQ_6U GT_6W LT_6S VV_F7 VV_143 lq_anf__dzQ lq_anf__dzS n_ayK) true))))))) (k_49 EQ_6U GT_6W LT_6S VV_F7 VV_143)))
)


; cid = 7
(assert (forall ((EQ_6U Int) (GT_6W Int) (LT_6S Int) (VV_143 Int) 
(VV_F7 Int) (b_azp Int) (cmp (Array Int Int)) (lq_anf__dzQ Int) 
(lq_anf__dzS Int) 
(n_ayK Int)) 
 (=> (and (k_128 EQ_6U GT_6W LT_6S VV_143 lq_anf__dzQ lq_anf__dzS n_ayK) (and (k_89 EQ_6U GT_6W LT_6S lq_anf__dzS b_azp n_ayK) (and (= (select cmp EQ_6U) EQ_6U) (and (= (select cmp GT_6W) GT_6W) (and (= (select cmp LT_6S) LT_6S) (and (= lq_anf__dzQ 100) (and (k_121 EQ_6U GT_6W LT_6S VV_F7 VV_143 lq_anf__dzQ lq_anf__dzS n_ayK) true))))))) (k_117 EQ_6U GT_6W LT_6S VV_F7 lq_anf__dzQ n_ayK)))
)


; cid = 6
(assert (forall ((EQ_6U Int) (GT_6W Int) (LT_6S Int) (VV_F6 Int) 
(b_azp Int) (cmp (Array Int Int)) (lq_anf__dzQ Int) (lq_anf__dzS Int) 
(n_ayK Int)) 
 (=> (and (k_89 EQ_6U GT_6W LT_6S lq_anf__dzS b_azp n_ayK) (and (= (select cmp EQ_6U) EQ_6U) (and (= (select cmp GT_6W) GT_6W) (and (= (select cmp LT_6S) LT_6S) (and (= lq_anf__dzQ 100) (and (k_128 EQ_6U GT_6W LT_6S VV_F6 lq_anf__dzQ lq_anf__dzS n_ayK) true)))))) (k_56 EQ_6U GT_6W LT_6S VV_F6)))
)


; cid = 5
(assert (forall ((EQ_6U Int) (GT_6W Int) (LT_6S Int) (VV_F5 Int) 
(b_azp Int) (cmp (Array Int Int)) (lq_anf__dzQ Int) (lq_anf__dzS Int) 
(lq_tmp_x126 Int) 
(n_ayK Int)) 
 (=> (and (k_89 EQ_6U GT_6W LT_6S lq_anf__dzS b_azp n_ayK) (and (= (select cmp EQ_6U) EQ_6U) (and (= (select cmp GT_6W) GT_6W) (and (= (select cmp LT_6S) LT_6S) (and (= lq_anf__dzQ 100) (and (k_86 EQ_6U GT_6W LT_6S VV_F5 b_azp lq_tmp_x126 n_ayK) true)))))) (k_125 EQ_6U GT_6W LT_6S VV_F5 lq_anf__dzQ lq_anf__dzS lq_tmp_x126 n_ayK)))
)


; cid = 4
(assert (forall ((EQ_6U Int) (GT_6W Int) (LT_6S Int) (VV_134 Int) 
(VV_F4 Int) (b_azp Int) (cmp (Array Int Int)) (lq_anf__dzQ Int) 
(lq_anf__dzS Int) 
(n_ayK Int)) 
 (=> (and (k_89 EQ_6U GT_6W LT_6S VV_134 b_azp n_ayK) (and (k_89 EQ_6U GT_6W LT_6S lq_anf__dzS b_azp n_ayK) (and (= (select cmp EQ_6U) EQ_6U) (and (= (select cmp GT_6W) GT_6W) (and (= (select cmp LT_6S) LT_6S) (and (= VV_134 lq_anf__dzS) (and (= lq_anf__dzQ 100) (and (k_84 EQ_6U GT_6W LT_6S VV_F4 VV_134 b_azp n_ayK) true)))))))) (k_123 EQ_6U GT_6W LT_6S VV_F4 VV_134 lq_anf__dzQ lq_anf__dzS n_ayK)))
)


; cid = 3
(assert (forall ((EQ_6U Int) (GT_6W Int) (LT_6S Int) (VV_134 Int) 
(VV_F3 Int) (b_azp Int) (cmp (Array Int Int)) (lq_anf__dzQ Int) 
(lq_anf__dzS Int) 
(n_ayK Int)) 
 (=> (and (k_89 EQ_6U GT_6W LT_6S VV_134 b_azp n_ayK) (and (k_89 EQ_6U GT_6W LT_6S lq_anf__dzS b_azp n_ayK) (and (= (select cmp EQ_6U) EQ_6U) (and (= (select cmp GT_6W) GT_6W) (and (= (select cmp LT_6S) LT_6S) (and (= VV_134 lq_anf__dzS) (and (= lq_anf__dzQ 100) (and (k_82 EQ_6U GT_6W LT_6S VV_F3 VV_134 b_azp n_ayK) true)))))))) (k_121 EQ_6U GT_6W LT_6S VV_F3 VV_134 lq_anf__dzQ lq_anf__dzS n_ayK)))
)


; cid = 2
(assert (forall ((EQ_6U Int) (GT_6W Int) (LT_6S Int) (VV_F2 Int) 
(b_azp Int) (cmp (Array Int Int)) (lq_anf__dzQ Int) (lq_anf__dzS Int) 
(n_ayK Int)) 
 (=> (and (k_89 EQ_6U GT_6W LT_6S lq_anf__dzS b_azp n_ayK) (and (= (select cmp EQ_6U) EQ_6U) (and (= (select cmp GT_6W) GT_6W) (and (= (select cmp LT_6S) LT_6S) (and (= lq_anf__dzQ 100) (and (k_89 EQ_6U GT_6W LT_6S VV_F2 b_azp n_ayK) (and (= VV_F2 lq_anf__dzS) true))))))) (k_128 EQ_6U GT_6W LT_6S VV_F2 lq_anf__dzQ lq_anf__dzS n_ayK)))
)
